67 67
7 19
28 5
2 43
29 21
15 48
11 60
6 12
26 24
1 36
25 35
19 3
17 55
23 26
25 4
31 42
21 11
22 29
21 53
33 9
3 40
9 7
27 51
10 64
31 10
20 8
12 6
4 14
18 20
6 45
7 38
23 50
22 18
12 41
13 66
16 34
17 56
5 39
32 49
18 2
9 33
20 13
14 22
26 44
15 46
8 65
16 47
29 31
11 27
19 54
13 58
28 28
8 52
4 15
27 37
5 16
33 61
30 30
30 32
1 67
1 23
24 1
3 57
14 59
2 17
32 62
10 25
24 63
